NAME : tsp20_1.153.tour
COMMENT : Length = 153
COMMENT : Found by LKH [Keld Helsgaun]
TYPE : TOUR
DIMENSION : 20
TOUR_SECTION
1
16
6
3
18
7
2
15
5
10
14
12
9
20
17
11
8
13
4
19
-1
EOF
